# Solution for model GasLib-40
# Objective value = 1.1342852918520164e+01
loadshed[innode_1] 0
loadshed[innode_2] 0
loadshed[innode_3] 0
loadshed[innode_4] 0
loadshed[innode_5] 0
loadshed[innode_6] 0
loadshed[innode_7] 0
loadshed[innode_8] 0
loadshed[source_1] -1.5801834319806596e-01
loadshed[source_2] 7.1663632998625326e-03
loadshed[source_3] 2.2260119229732578e-01
loadshed[sink_1] 0
loadshed[sink_2] 0
loadshed[sink_3] 0
loadshed[sink_4] 0
loadshed[sink_5] 0
loadshed[sink_6] 0
loadshed[sink_7] 0
loadshed[sink_8] 0
loadshed[sink_9] 0
loadshed[sink_10] 0
loadshed[sink_11] 0
loadshed[sink_12] 6.9357571985855770e-01
loadshed[sink_13] 0
loadshed[sink_14] 0
loadshed[sink_15] 0
loadshed[sink_16] 0
loadshed[sink_17] 0
loadshed[sink_18] 0
loadshed[sink_19] 0
loadshed[sink_20] 0
loadshed[sink_21] 0
loadshed[sink_22] 0
loadshed[sink_23] 0
loadshed[sink_24] 0
loadshed[sink_25] 0
loadshed[sink_26] 0
loadshed[sink_27] 0
loadshed[sink_28] 0
loadshed[sink_29] 0
flow[source_1,sink_3] 1.8307144154794423e+02
flow[innode_1,sink_16] 1.6354166666666970e+01
flow[innode_6,sink_13] -8.4200267871622856e+00
flow[sink_13,sink_14] -2.4774193453828953e+01
flow[sink_14,sink_10] -4.1128360120495621e+01
flow[sink_25,sink_26] 1.7649349383467572e+02
flow[sink_26,sink_9] 1.3584464708148002e+02
flow[sink_9,sink_18] 1.1949048041481335e+02
flow[sink_26,sink_4] 2.4294680086529752e+01
flow[sink_4,sink_20] -2.4767819913470703e+01
flow[sink_18,sink_6] 1.0313631374814668e+02
flow[sink_25,innode_8] -1.5036310821460785e+02
flow[sink_6,sink_7] 5.4073813748146506e+01
flow[sink_6,sink_22] 3.2708333333333641e+01
flow[sink_7,sink_24] 3.7719647081479835e+01
flow[sink_22,sink_1] 1.6354166666666970e+01
flow[sink_24,sink_21] 2.1365480414813170e+01
flow[sink_21,sink_12] 5.0113137481465042e+00
flow[sink_7,sink_5] 0
flow[sink_5,sink_17] -1.6354166666667197e+01
flow[sink_17,sink_4] -3.2708333333333869e+01
flow[sink_17,sink_8] 0
flow[sink_3,sink_23] 16.3541666666697
flow[sink_8,sink_20] -1.6354166666668334e+01
flow[sink_25,sink_20] 5.7476153246805808e+01
flow[sink_25,sink_15] -9.1540678746378134e+01
flow[sink_15,sink_29] -6.0450009338404975e+01
flow[sink_29,sink_28] 1.6354166666667879e+01
flow[sink_29,sink_2] 63.7990027413065
flow[sink_2,sink_15] 4.7444836074639838e+01
flow[sink_29,innode_7] -1.5695734541304603e+02
flow[innode_4,sink_19] 4.7794636304021530e+01
flow[sink_19,innode_3] 4.4012759043388634e+01
flow[innode_4,innode_5] 7.5104557149807476e+01
flow[sink_27,innode_5] -7.5104557149807476e+01
flow[sink_27,sink_19] 5.8750390483140812e+01
flow[sink_10,sink_11] 3.2708333333333641e+01
flow[sink_10,innode_2] -4.6178101077107293e+01
flow[sink_10,innode_3] -4.4012759043388634e+01
flow[innode_6,sink_25] 8.4200267871622856e+00
flow[sink_11,innode_1] 1.6354166666666970e+01
flow[sink_19,innode_2] 4.6178101077107293e+01
flow[source_3,innode_4] 1.2289919345382901e+02
flow[source_2,innode_7] 1.5695734541304603e+02
flow[sink_3,innode_8] 1.5036310821460785e+02
pressure[innode_1] 7.6484562830564215e+01
pressure[innode_2] 7.9076967501896689e+01
pressure[innode_3] 7.8979506230899432e+01
pressure[innode_4] 81.01325
pressure[innode_5] 8.0961589125316792e+01
pressure[innode_6] 7.4600196724649948e+01
pressure[innode_7] 81.01325
pressure[innode_8] 8.0401312106730785e+01
pressure[source_1] 81.01325
pressure[source_2] 81.01325
pressure[source_3] 81.01325
pressure[sink_1] 4.4860564880631962e+01
pressure[sink_2] 7.5199155148916248e+01
pressure[sink_3] 8.0401312106730785e+01
pressure[sink_4] 5.9080975099114319e+01
pressure[sink_5] 5.6612703246154851e+01
pressure[sink_6] 4.6961642491019333e+01
pressure[sink_7] 4.6219337920721216e+01
pressure[sink_8] 5.9758402108455485e+01
pressure[sink_9] 5.4039210869545279e+01
pressure[sink_10] 7.6636264138167761e+01
pressure[sink_11] 7.6484562830564215e+01
pressure[sink_12] 1.0132500000000009e+00
pressure[sink_13] 7.4646614925210386e+01
pressure[sink_14] 7.4690950454690679e+01
pressure[sink_15] 75.044258215806
pressure[sink_16] 7.5462912995746535e+01
pressure[sink_17] 57.8309704515096
pressure[sink_18] 4.9715689145255944e+01
pressure[sink_19] 7.9076967501896689e+01
pressure[sink_20] 6.0898057532043772e+01
pressure[sink_21] 2.7965497018603056e+00
pressure[sink_22] 4.5924334022986969e+01
pressure[sink_23] 80.236594095071
pressure[sink_24] 3.0331525465555913e+00
pressure[sink_25] 7.4600196724649948e+01
pressure[sink_26] 6.2169863602754738e+01
pressure[sink_27] 80.338360079273
pressure[sink_28] 7.6519973616278065e+01
pressure[sink_29] 7.6815255889895241e+01
interdiction[source_1,sink_3] 0
interdiction[innode_1,sink_16] 0
interdiction[innode_6,sink_13] 0
interdiction[sink_13,sink_14] 0
interdiction[sink_14,sink_10] 0
interdiction[sink_25,sink_26] 0
interdiction[sink_26,sink_9] 0
interdiction[sink_9,sink_18] 0
interdiction[sink_26,sink_4] 0
interdiction[sink_4,sink_20] 0
interdiction[sink_18,sink_6] 0
interdiction[sink_25,innode_8] 0
interdiction[sink_6,sink_7] 0
interdiction[sink_6,sink_22] 0
interdiction[sink_7,sink_24] 0
interdiction[sink_22,sink_1] 0
interdiction[sink_24,sink_21] 0
interdiction[sink_21,sink_12] 0
interdiction[sink_7,sink_5] 1
interdiction[sink_5,sink_17] 0
interdiction[sink_17,sink_4] 0
interdiction[sink_17,sink_8] 1
interdiction[sink_3,sink_23] 0
interdiction[sink_8,sink_20] 0
interdiction[sink_25,sink_20] 0
interdiction[sink_25,sink_15] 0
interdiction[sink_15,sink_29] 0
interdiction[sink_29,sink_28] 0
interdiction[sink_29,sink_2] 0
interdiction[sink_2,sink_15] 0
interdiction[sink_29,innode_7] 0
interdiction[innode_4,sink_19] 0
interdiction[sink_19,innode_3] 0
interdiction[innode_4,innode_5] 0
interdiction[sink_27,innode_5] 0
interdiction[sink_27,sink_19] 0
interdiction[sink_10,sink_11] 0
interdiction[sink_10,innode_2] 0
interdiction[sink_10,innode_3] 0
interdiction[innode_6,sink_25] 0
interdiction[sink_11,innode_1] 0
interdiction[sink_19,innode_2] 0
interdiction[source_3,innode_4] 0
interdiction[source_2,innode_7] 0
interdiction[sink_3,innode_8] 0
WCcheckFlow[source_1,sink_3] 39
WCcheckFlow[innode_1,sink_16] 1
WCcheckFlow[innode_6,sink_13] 13
WCcheckFlow[sink_13,sink_14] 12
WCcheckFlow[sink_14,sink_10] 11
WCcheckFlow[sink_25,sink_26] 15
WCcheckFlow[sink_26,sink_9] 9
WCcheckFlow[sink_9,sink_18] 8
WCcheckFlow[sink_26,sink_4] 5
WCcheckFlow[sink_4,sink_20] 2
WCcheckFlow[sink_18,sink_6] 7
WCcheckFlow[sink_25,innode_8] -36
WCcheckFlow[sink_6,sink_7] 4
WCcheckFlow[sink_6,sink_22] 2
WCcheckFlow[sink_7,sink_24] 3
WCcheckFlow[sink_22,sink_1] 1
WCcheckFlow[sink_24,sink_21] 2
WCcheckFlow[sink_21,sink_12] 1
WCcheckFlow[sink_7,sink_5] 0
WCcheckFlow[sink_5,sink_17] -1
WCcheckFlow[sink_17,sink_4] -2
WCcheckFlow[sink_17,sink_8] 0
WCcheckFlow[sink_3,sink_23] 1
WCcheckFlow[sink_8,sink_20] -1
WCcheckFlow[sink_25,sink_20] 0
WCcheckFlow[sink_25,sink_15] 6
WCcheckFlow[sink_15,sink_29] 5
WCcheckFlow[sink_29,sink_28] 1
WCcheckFlow[sink_29,sink_2] 1
WCcheckFlow[sink_2,sink_15] 0
WCcheckFlow[sink_29,innode_7] 2
WCcheckFlow[innode_4,sink_19] -4
WCcheckFlow[sink_19,innode_3] -5
WCcheckFlow[innode_4,innode_5] 2
WCcheckFlow[sink_27,innode_5] -1
WCcheckFlow[sink_27,sink_19] 0
WCcheckFlow[sink_10,sink_11] 3
WCcheckFlow[sink_10,innode_2] 1
WCcheckFlow[sink_10,innode_3] 6
WCcheckFlow[innode_6,sink_25] -14
WCcheckFlow[sink_11,innode_1] 2
WCcheckFlow[sink_19,innode_2] 0
WCcheckFlow[source_3,innode_4] -1
WCcheckFlow[source_2,innode_7] -1
WCcheckFlow[sink_3,innode_8] 37
